\ This file has been generated by DOcplex
\ ENCODING=ISO-8859-1
\Problem name: dectiger problem

Maximize
 obj: 7.451041988281 aj_u0_x0 - 43.604375781250 aj_u1_x0
      + 11.395624218750 aj_u2_x0 - 43.604375781250 aj_u3_x0
      - 18.104375781250 aj_u4_x0 - 43.104375781250 aj_u5_x0
      + 11.395624218750 aj_u6_x0 - 43.104375781250 aj_u7_x0
      + 16.895624218750 aj_u8_x0 + 7.451041988281 aj_u0_x1
      + 11.395624218750 aj_u1_x1 - 43.604375781250 aj_u2_x1
      + 11.395624218750 aj_u3_x1 + 16.895624218750 aj_u4_x1
      - 43.104375781250 aj_u5_x1 - 43.604375781250 aj_u6_x1
      - 43.104375781250 aj_u7_x1 - 18.104375781250 aj_u8_x1
Subject To
 c1: - 62.647497532227 aj_u0_x0 - 139.605570898437 aj_u1_x0
     - 107.605570898438 aj_u2_x0 - 114.605570898438 aj_u3_x0
     - 48.605570898438 aj_u4_x0 - 56.605570898438 aj_u5_x0
     - 28.605570898438 aj_u6_x0 - 131.605570898438 aj_u7_x0
     - 88.605570898438 aj_u8_x0 + 62.647497532227 a0_u0 + 114.605570898438 a0_u1
     + 28.605570898438 a0_u2 >= 0
 c2: - 62.647497532227 aj_u0_x0 - 139.605570898437 aj_u1_x0
     - 107.605570898438 aj_u2_x0 - 114.605570898438 aj_u3_x0
     - 48.605570898438 aj_u4_x0 - 56.605570898438 aj_u5_x0
     - 28.605570898438 aj_u6_x0 - 131.605570898438 aj_u7_x0
     - 88.605570898438 aj_u8_x0 + 139.605570898437 a0_u0 + 48.605570898438 a0_u1
     + 131.605570898438 a0_u2 >= 0
 c3: - 62.647497532227 aj_u0_x0 - 139.605570898437 aj_u1_x0
     - 107.605570898438 aj_u2_x0 - 114.605570898438 aj_u3_x0
     - 48.605570898438 aj_u4_x0 - 56.605570898438 aj_u5_x0
     - 28.605570898438 aj_u6_x0 - 131.605570898438 aj_u7_x0
     - 88.605570898438 aj_u8_x0 + 107.605570898438 a0_u0 + 56.605570898438 a0_u1
     + 88.605570898438 a0_u2 >= 0
 c4: - 129.647497532227 aj_u0_x1 - 48.605570898438 aj_u1_x1
     - 111.605570898438 aj_u2_x1 - 125.605570898438 aj_u3_x1
     - 129.605570898438 aj_u4_x1 - 48.605570898438 aj_u5_x1
     - 73.605570898438 aj_u6_x1 - 67.605570898438 aj_u7_x1
     - 138.605570898437 aj_u8_x1 + 129.647497532227 a0_u0
     + 125.605570898438 a0_u1 + 73.605570898438 a0_u2 >= 0
 c5: - 129.647497532227 aj_u0_x1 - 48.605570898438 aj_u1_x1
     - 111.605570898438 aj_u2_x1 - 125.605570898438 aj_u3_x1
     - 129.605570898438 aj_u4_x1 - 48.605570898438 aj_u5_x1
     - 73.605570898438 aj_u6_x1 - 67.605570898438 aj_u7_x1
     - 138.605570898437 aj_u8_x1 + 48.605570898438 a0_u0
     + 129.605570898438 a0_u1 + 67.605570898438 a0_u2 >= 0
 c6: - 129.647497532227 aj_u0_x1 - 48.605570898438 aj_u1_x1
     - 111.605570898438 aj_u2_x1 - 125.605570898438 aj_u3_x1
     - 129.605570898438 aj_u4_x1 - 48.605570898438 aj_u5_x1
     - 73.605570898438 aj_u6_x1 - 67.605570898438 aj_u7_x1
     - 138.605570898437 aj_u8_x1 + 111.605570898438 a0_u0
     + 48.605570898438 a0_u1 + 138.605570898437 a0_u2 >= 0
 c7: a0_u0 + a0_u1 + a0_u2 = 1
 c8: a1_u0_x0 + a1_u1_x0 + a1_u2_x0 = 1
 c9: aj_u0_x0 + aj_u1_x0 + aj_u2_x0 + aj_u3_x0 + aj_u4_x0 + aj_u5_x0 + aj_u6_x0
     + aj_u7_x0 + aj_u8_x0 = 1
 c10: a1_u0_x1 + a1_u1_x1 + a1_u2_x1 = 1
 c11: aj_u0_x1 + aj_u1_x1 + aj_u2_x1 + aj_u3_x1 + aj_u4_x1 + aj_u5_x1 + aj_u6_x1
      + aj_u7_x1 + aj_u8_x1 = 1
 c12: aj_u0_x0 + aj_u1_x0 + aj_u2_x0 - a0_u0 = 0
 c13: aj_u3_x0 + aj_u4_x0 + aj_u5_x0 - a0_u1 = 0
 c14: aj_u6_x0 + aj_u7_x0 + aj_u8_x0 - a0_u2 = 0
 c15: aj_u0_x1 + aj_u1_x1 + aj_u2_x1 - a0_u0 = 0
 c16: aj_u3_x1 + aj_u4_x1 + aj_u5_x1 - a0_u1 = 0
 c17: aj_u6_x1 + aj_u7_x1 + aj_u8_x1 - a0_u2 = 0
 c18: aj_u0_x0 + aj_u3_x0 + aj_u6_x0 - a1_u0_x0 = 0
 c19: aj_u1_x0 + aj_u4_x0 + aj_u7_x0 - a1_u1_x0 = 0
 c20: aj_u2_x0 + aj_u5_x0 + aj_u8_x0 - a1_u2_x0 = 0
 c21: aj_u0_x1 + aj_u3_x1 + aj_u6_x1 - a1_u0_x1 = 0
 c22: aj_u1_x1 + aj_u4_x1 + aj_u7_x1 - a1_u1_x1 = 0
 c23: aj_u2_x1 + aj_u5_x1 + aj_u8_x1 - a1_u2_x1 = 0

Bounds
       a0_u0 <= 1
       a0_u1 <= 1
       a0_u2 <= 1
 0 <= a1_u0_x0 <= 1
 0 <= a1_u1_x0 <= 1
 0 <= a1_u2_x0 <= 1
       aj_u0_x0 <= 1
       aj_u1_x0 <= 1
       aj_u2_x0 <= 1
       aj_u3_x0 <= 1
       aj_u4_x0 <= 1
       aj_u5_x0 <= 1
       aj_u6_x0 <= 1
       aj_u7_x0 <= 1
       aj_u8_x0 <= 1
 0 <= a1_u0_x1 <= 1
 0 <= a1_u1_x1 <= 1
 0 <= a1_u2_x1 <= 1
       aj_u0_x1 <= 1
       aj_u1_x1 <= 1
       aj_u2_x1 <= 1
       aj_u3_x1 <= 1
       aj_u4_x1 <= 1
       aj_u5_x1 <= 1
       aj_u6_x1 <= 1
       aj_u7_x1 <= 1
       aj_u8_x1 <= 1

Binaries
 a1_u0_x0 a1_u1_x0 a1_u2_x0 a1_u0_x1 a1_u1_x1 a1_u2_x1
End
